param set_len = 30;
param target := 16665578;
param values := [1] 625806 [2] 1084675 [3] 1093267 [4] 735368 [5] 421404 [6] 946292 [7] 678438 [8] 318052 [9] 1273491 [10] 1072803 [11] 1830072 [12] 2066539 [13] 1567824 [14] 606708 [15] 1844142 [16] 860342 [17] 207401 [18] 1434151 [19] 1152632 [20] 1624859 [21] 802246 [22] 1369870 [23] 351898 [24] 1768930 [25] 846927 [26] 1447611 [27] 829060 [28] 664770 [29] 517598 [30] 1834612 ;
